#D,B,K HERHANGI BIR ISE YARAMIYOR SADECE BASLIKLAR CIKMASI ICIN YAPILDI. 
8
0
0
1       [ACENADI_______________________________]                                                                   [FATTAR__]
1       [ACENUNV_______________________________]                                                                   [FATZ__]
1       [ACENADR1______________________________]                                                                   [FATNO_]
1       [ACENADR2______________________________]
1       [ACEN-ILCE_________]/[ACEN-IL___________]/[ACENULKE____]
1                              [ACENVDA___________]-[ACENVNO__________]           
0
0
0
0
0 
2     [ACIKLAMA__________________________________________________] [TLGTOPLAM__]
0
0
0
0
0
0
0
0
0
0
0
0   
4                                                            [TLMATRAH___]
4                                                       %[K] [TLKDV______]
4                                                            [TLGTOPLAM__]
0
5      Yalniz-[YAZI.........................................................................................]
